100
300
50
0 0
98 10
70 23
83 12
19 23
98 1
67 21
31 28
68 21
82 5
37 44
63 80
31 93
5 62
92 34
94 61
53 6
32 22
99 69
30 7
56 90
27 98
66 32
96 22
95 13
4 69
67 9
64 55
69 17
52 69
89 24
66 34
55 67
35 52
39 46
66 13
79 49
34 52
10 34
90 10
76 96
69 48
26 72
74 76
65 1
65 79
23 86
54 44
58 3
88 32
2 56
0 0
60
50
70
40
60
40
50
50
50
60
60
30
70
50
60
30
60
60
50
40
50
70
50
30
60
60
50
70
40
60
40
50
50
50
60
60
30
70
50
60
30
60
60
50
40
50
70
50
30
60
